data/solutions/recovery/degenerate/intermediate/binding/degenerate_intermediate_instance23/53.sol
Elapsed time: 0.05
Upper bound: 232892882.0
Planning weighted value: 9.29515299346e+11
C[0]=232892882.0
C[1]=231560750.0
C[2]=229287760.0
C[3]=229040639.0
C[4]=228644239.0
C[5]=228538810.0
C[6]=225054639.0
C[7]=223828017.0
C[8]=219249742.0
C[9]=218283229.0
C[10]=216025193.0
C[11]=0.0
y[0]=8
y[1]=3
y[2]=8
y[3]=7
y[4]=6
y[5]=9
y[6]=3
y[7]=0
y[8]=0
y[9]=6
y[10]=1
y[11]=3
y[12]=9
y[13]=2
y[14]=1
y[15]=1
y[16]=10
y[17]=7
y[18]=5
y[19]=8
y[20]=6
y[21]=7
y[22]=5
y[23]=1
y[24]=2
y[25]=6
y[26]=4
y[27]=0
y[28]=8
y[29]=0
y[30]=10
y[31]=9
y[32]=7
y[33]=2
y[34]=5
y[35]=10
y[36]=4
y[37]=8
y[38]=5
y[39]=9
y[40]=2
y[41]=1
y[42]=7
y[43]=5
y[44]=9
y[45]=3
y[46]=9
y[47]=3
y[48]=9
y[49]=10
y[50]=4
y[51]=2
y[52]=0
y[53]=3
y[54]=3
y[55]=9
y[56]=10
y[57]=7
y[58]=6
y[59]=4
y[60]=4
y[61]=1
y[62]=0
y[63]=6
y[64]=8
y[65]=9
y[66]=1
y[67]=5
y[68]=10
y[69]=1
y[70]=4
y[71]=10
y[72]=5
y[73]=9
y[74]=2
y[75]=4
y[76]=10
y[77]=0
