data/solutions/recovery/degenerate/intermediate/binding/degenerate_intermediate_instance23/53.log

Log started (V12.6.3.0) Sun Apr 22 12:31:18 2018

New value for default parallel thread count: 1

Problem '/tmp/tmpYf_8Pj.pyomo.lp' read.
Read time = 0.02 sec. (0.84 ticks)

Problem name         : /tmp/tmpYf_8Pj.pyomo.lp
Objective sense      : Minimize
Variables            :     950  [Nneg: 1,  Binary: 936,  General Integer: 13]
Objective nonzeros   :       1
Linear constraints   :     182  [Less: 90,  Equal: 92]
  Nonzeros           :   60259
  RHS nonzeros       :      79

Variables            : Min LB: 0.000000         Max UB: 1.000000       
Objective nonzeros   : Min   : 1.000000         Max   : 1.000000       
Linear constraints   :
  Nonzeros           : Min   : 1.000000         Max   : 6.145599e+07   
  RHS nonzeros       : Min   : 1.000000         Max   : 1.000000       
Tried aggregator 1 time.
MIP Presolve eliminated 150 rows and 828 columns.
Reduced MIP has 32 rows, 122 columns, and 253 nonzeros.
Reduced MIP has 110 binaries, 12 generals, 0 SOSs, and 0 indicators.
Presolve time = 0.00 sec. (3.34 ticks)
Found incumbent of value 5.2914101e+08 after 0.01 sec. (4.84 ticks)
Probing time = 0.00 sec. (0.37 ticks)
Tried aggregator 1 time.
Reduced MIP has 32 rows, 122 columns, and 253 nonzeros.
Reduced MIP has 110 binaries, 12 generals, 0 SOSs, and 0 indicators.
Presolve time = 0.00 sec. (0.21 ticks)
Probing time = 0.00 sec. (0.37 ticks)
Clique table members: 10.
MIP emphasis: balance optimality and feasibility.
MIP search method: dynamic search.
Parallel mode: none, using 1 thread.
Root relaxation solution time = 0.00 sec. (0.29 ticks)

        Nodes                                         Cuts/
   Node  Left     Objective  IInf  Best Integer    Best Bound    ItCnt     Gap

*     0+    0                       5.29141e+08   2.23828e+08            57.70%
      0     0   2.25673e+08    29   5.29141e+08   2.25673e+08       63   57.35%
      0     0   2.25770e+08    28   5.29141e+08      Fract: 6       97   57.33%
*     0+    0                       2.79261e+08   2.25770e+08            19.15%
      0     2   2.25770e+08    28   2.79261e+08   2.25770e+08       97   19.15%
Elapsed time = 0.02 sec. (9.47 ticks, tree = 0.01 MB, solutions = 2)
*    10+    6                       2.32905e+08   2.25770e+08             3.06%
*    20+    9                       2.32893e+08   2.25770e+08             3.06%

Gomory fractional cuts applied:  2

Root node processing (before b&c):
  Real time             =    0.02 sec. (9.51 ticks)
Sequential b&c:
  Real time             =    0.00 sec. (1.79 ticks)
                          ------------
Total (root+branch&cut) =    0.02 sec. (11.30 ticks)

Solution pool: 4 solutions saved.

MIP - Integer optimal solution:  Objective =  2.3289288200e+08
Solution time =    0.02 sec.  Iterations = 299  Nodes = 34
Deterministic time = 11.30 ticks  (603.29 ticks/sec)


Incumbent solution written to file '/tmp/tmpAyrDp1.cplex.sol'.
